SPARKNaCl/why3-cvc5/sparknacl-sanitize_i64_seq.adb_4_6_length_check_1.smt2
;; produced by cvc5.drv ;;
(set-logic ALL)
(set-info :smt-lib-version 2.6)
;;; generated by SMT-LIB2 driver
;;; SMT-LIB2 driver: bit-vectors, common part
;;; SMT-LIB2: integer arithmetic
(declare-sort i64 0)

;; "i64'int"
(declare-fun i64qtint (i64) Int)

;; "i64'axiom"
(assert
  (forall ((i i64))
    (and
      (<= (- 9223372036854775808) (i64qtint i))
      (<= (i64qtint i) 9223372036854775807))))

;; "in_range"
(define-fun in_range ((x Int)) Bool
  (and (<= (- 9223372036854775808) x) (<= x 9223372036854775807)))

;; "to_rep"
(define-fun to_rep ((x i64)) Int
  (i64qtint x))

;; "of_rep"
(declare-fun of_rep (Int) i64)

;; "inversion_axiom"
(assert
  (forall ((x i64)) (! (= (of_rep (to_rep x)) x) :pattern ((to_rep x)) )))

;; "range_axiom"
(assert (forall ((x i64)) (! (in_range (to_rep x)) :pattern ((to_rep x)) )))

;; "coerce_axiom"
(assert
  (forall ((x Int))
    (! (=> (in_range x) (= (to_rep (of_rep x)) x)) :pattern ((to_rep
                                                               (of_rep x))) )))

(declare-sort map1 0)

;; "has_bounds"
(declare-fun has_bounds (map1
  Int
  Int) Bool)

;; "get"
(declare-fun get (map1
  Int) i64)

(declare-sort tinteger_32B 0)

;; "tinteger_32B'int"
(declare-fun tinteger_32Bqtint (tinteger_32B) Int)

;; "tinteger_32B'axiom"
(assert
  (forall ((i tinteger_32B))
    (and
      (<= (- 2147483648) (tinteger_32Bqtint i))
      (<= (tinteger_32Bqtint i) 2147483647))))

;; "in_range"
(define-fun in_range1 ((x Int)) Bool
  (and (<= (- 2147483648) x) (<= x 2147483647)))

(declare-const r__first tinteger_32B)

(declare-const r__last tinteger_32B)

;; "to_rep"
(define-fun to_rep1 ((x tinteger_32B)) Int
  (tinteger_32Bqtint x))

;; "of_rep"
(declare-fun of_rep1 (Int) tinteger_32B)

;; "inversion_axiom"
(assert
  (forall ((x tinteger_32B))
    (! (= (of_rep1 (to_rep1 x)) x) :pattern ((to_rep1 x)) )))

;; "range_axiom"
(assert
  (forall ((x tinteger_32B))
    (! (in_range1 (to_rep1 x)) :pattern ((to_rep1 x)) )))

;; "coerce_axiom"
(assert
  (forall ((x Int))
    (! (=> (in_range1 x) (= (to_rep1 (of_rep1 x)) x)) :pattern ((to_rep1
                                                                  (of_rep1 x))) )))

;; "in_range"
(define-fun in_range2 ((x Int)) Bool
  (and (<= 0 x) (<= x 2147483647)))

(declare-datatypes ((t 0))
  (((tqtmk (rec__first tinteger_32B)(rec__last tinteger_32B)))))

;; "mk"
(declare-fun mk (Int
  Int) t)

;; "mk_def"
(assert
  (forall ((f Int) (l Int))
    (! (=>
         (in_range1 f)
         (=>
           (in_range1 l)
           (and
             (= (to_rep1 (rec__first (mk f l))) f)
             (= (to_rep1 (rec__last (mk f l))) l)))) :pattern ((mk f l)) )))

;; "dynamic_property"
(define-fun dynamic_property ((range_first Int) (range_last Int) (low Int) (high Int)) Bool
  (and
    (in_range1 low)
    (and
      (in_range1 high)
      (=> (<= low high) (and (in_range2 low) (in_range2 high))))))

(declare-datatypes ((us_t 0))
  (((us_tqtmk (elts map1)(rt t)))))

;; "to_array"
(define-fun to_array ((a us_t)) map1
  (elts a))

;; "of_array"
(define-fun of_array ((a map1) (f Int) (l Int)) us_t
  (us_tqtmk a (mk f l)))

;; "first"
(define-fun first ((a us_t)) Int
  (to_rep1 (rec__first (rt a))))

;; "last"
(define-fun last ((a us_t)) Int
  (to_rep1 (rec__last (rt a))))

;; "well_formed"
(define-fun well_formed ((a us_t)) Bool
  (has_bounds
    (elts a)
    (to_rep1 (rec__first (rt a)))
    (to_rep1 (rec__last (rt a)))))

;; "temp_____aggregate_def_3673"
(declare-fun temp_____aggregate_def_3673 (Int
  Int
  Int) us_t)

(declare-const rliteral i64)

;; "rliteral_axiom"
(assert (= (i64qtint rliteral) 0))

;; Goal "def'vc"
;; File "sparknacl.ads", line 494, characters 0-0
(assert
  (not
  (forall ((r map1))
    (=>
      (and
        (dynamic_property 0 2147483647 (to_rep1 r__first) (to_rep1 r__last))
        (well_formed (of_array r (to_rep1 r__first) (to_rep1 r__last))))
      (forall ((o Int))
        (=>
          (= (to_rep1 r__last) o)
          (forall ((o1 Int))
            (=>
              (= (to_rep1 r__first) o1)
              (forall ((temp___3681 us_t))
                (=>
                  (and
                    (and
                      (and
                        (= (first temp___3681) o1)
                        (= (last temp___3681) o))
                      (and
                        (well_formed temp___3681)
                        (forall ((temp___3676 Int))
                          (! (=>
                               (and
                                 (<= (first temp___3681) temp___3676)
                                 (<= temp___3676 (last temp___3681)))
                               (= (get (to_array temp___3681) temp___3676) 
                               rliteral)) :pattern ((get
                                                      (to_array temp___3681)
                                                      temp___3676)) ))))
                    (= temp___3681 (temp_____aggregate_def_3673 0 o1 o)))
                  (forall ((o2 Int))
                    (=>
                      (= (to_rep1 r__last) o2)
                      (forall ((o3 Int))
                        (=>
                          (= (to_rep1 r__first) o3)
                          (=>
                            (<= (first temp___3681) (last temp___3681))
                            (<= o3 o2))))))))))))))))

(check-sat)
